Minimize
	value: tt

Subject to
tt + 1000 s_1_1 > 0.0
tt - t_1_1 - 1001.503055 s_1_1  + 0.751527 s_1_8  + 0.751527 s_1_7  > -977.981100
tt + 1000 s_2_1 > 0.0
tt - t_2_1 - 1001.742321 s_2_1  + 0.871161 s_2_8  + 0.871161 s_2_7  > -955.899600
tt + 1000 s_1_2 > 0.0
tt - t_1_2 - 1000.751527 s_1_2  + 0.751527 s_1_7  > -977.886744
tt + 1000 s_2_2 > 0.0
tt - t_2_2 - 1000.871161 s_2_2  + 0.871161 s_2_7  > -955.920100
tt + 1000 s_1_3 > 0.0
tt - t_1_3 - 1001.503055 s_1_3  + 0.751527 s_1_8  + 0.751527 s_1_7  > -995.307700
tt + 1000 s_2_3 > 0.0
tt - t_2_3 - 1001.742321 s_2_3  + 0.871161 s_2_8  + 0.871161 s_2_7  > -993.985100
tt + 1000 s_1_4 > 0.0
tt - t_1_4 - 1000.751527 s_1_4  + 0.751527 s_1_7  > -990.753700
tt + 1000 s_2_4 > 0.0
tt - t_2_4 - 1000.871161 s_2_4  + 0.871161 s_2_7  > -990.778100
tt + 1000 s_1_5 > 0.0
tt - t_1_5 - 1000.751527 s_1_5  + 0.751527 s_1_8  > -990.044600
tt + 1000 s_2_5 > 0.0
tt - t_2_5 - 1000.871161 s_2_5  + 0.871161 s_2_8  > -978.724156
tt + 1000 s_1_6 > 0.0
tt - t_1_6 - 1004.509164 s_1_6  + 0.751527 s_1_7  + 0.751527 s_1_3  + 0.751527 s_1_5  + 0.751527 s_1_4  + 0.751527 s_1_2  + 0.751527 s_1_1  > -996.726200
tt + 1000 s_2_6 > 0.0
tt - t_2_6 - 1005.226964 s_2_6  + 0.871161 s_2_7  + 0.871161 s_2_3  + 0.871161 s_2_5  + 0.871161 s_2_4  + 0.871161 s_2_2  + 0.871161 s_2_1  > -995.076100
tt + 1000 s_1_7 > 0.0
tt - t_1_7 - 1000.000000 s_1_7  > -964.571000
tt + 1000 s_2_7 > 0.0
tt - t_2_7 - 1000.000000 s_2_7  > -954.193000
tt + 1000 s_1_8 > 0.0
tt - t_1_8 - 1000.000000 s_1_8  > -967.301100
tt + 1000 s_2_8 > 0.0
tt - t_2_8 - 1000.000000 s_2_8  > -955.443500
s_1_1 + s_2_1 = 1
s_1_2 + s_2_2 = 1
s_1_3 + s_2_3 = 1
s_1_4 + s_2_4 = 1
s_1_5 + s_2_5 = 1
s_1_6 + s_2_6 = 1
s_1_7 + s_2_7 = 1
s_1_8 + s_2_8 = 1
s_1_1 + s_1_2 + 1000 r_1_1_2 >= 2
- s_1_1 - s_1_2 - 1000 r_1_1_2 >= -1001
t_1_1 - t_1_2 - 1000.000000 u_1_1_2 - 0.751527 s_1_2  + 0.751527 s_1_7  + 2000.000000 r_1_1_2 > -977.886744
s_2_1 + s_2_2 + 1000 r_2_1_2 >= 2
- s_2_1 - s_2_2 - 1000 r_2_1_2 >= -1001
t_2_1 - t_2_2 - 1000.000000 u_2_1_2 - 0.871161 s_2_2  + 0.871161 s_2_7  + 2000.000000 r_2_1_2 > -955.920100
s_1_1 + s_1_3 + 1000 r_1_1_3 >= 2
- s_1_1 - s_1_3 - 1000 r_1_1_3 >= -1001
t_1_1 - t_1_3 - 1000.000000 u_1_1_3 - 1.503055 s_1_3  + 0.751527 s_1_8  + 0.751527 s_1_7  + 2000.000000 r_1_1_3 > -995.307700
s_2_1 + s_2_3 + 1000 r_2_1_3 >= 2
- s_2_1 - s_2_3 - 1000 r_2_1_3 >= -1001
t_2_1 - t_2_3 - 1000.000000 u_2_1_3 - 1.742321 s_2_3  + 0.871161 s_2_8  + 0.871161 s_2_7  + 2000.000000 r_2_1_3 > -993.985100
s_1_1 + s_1_4 + 1000 r_1_1_4 >= 2
- s_1_1 - s_1_4 - 1000 r_1_1_4 >= -1001
t_1_1 - t_1_4 - 1000.000000 u_1_1_4 - 0.751527 s_1_4  + 0.751527 s_1_7  + 2000.000000 r_1_1_4 > -990.753700
s_2_1 + s_2_4 + 1000 r_2_1_4 >= 2
- s_2_1 - s_2_4 - 1000 r_2_1_4 >= -1001
t_2_1 - t_2_4 - 1000.000000 u_2_1_4 - 0.871161 s_2_4  + 0.871161 s_2_7  + 2000.000000 r_2_1_4 > -990.778100
s_1_1 + s_1_5 + 1000 r_1_1_5 >= 2
- s_1_1 - s_1_5 - 1000 r_1_1_5 >= -1001
t_1_1 - t_1_5 - 1000.000000 u_1_1_5 - 0.751527 s_1_5  + 0.751527 s_1_8  + 2000.000000 r_1_1_5 > -990.044600
s_2_1 + s_2_5 + 1000 r_2_1_5 >= 2
- s_2_1 - s_2_5 - 1000 r_2_1_5 >= -1001
t_2_1 - t_2_5 - 1000.000000 u_2_1_5 - 0.871161 s_2_5  + 0.871161 s_2_8  + 2000.000000 r_2_1_5 > -978.724156
t_1_6 - t_1_1 - 1001.503055 s_1_1  + 0.751527 s_1_8  + 0.751527 s_1_7  > -977.981100
t_1_6 - t_2_1 - 1001.742321 s_2_1  + 0.871161 s_2_8  + 0.871161 s_2_7  > -955.899600
t_2_6 - t_1_1 - 1001.503055 s_1_1  + 0.751527 s_1_8  + 0.751527 s_1_7  > -977.981100
t_2_6 - t_2_1 - 1001.742321 s_2_1  + 0.871161 s_2_8  + 0.871161 s_2_7  > -955.899600
t_1_1 - t_1_7 - 1000.000000 s_1_7  > -964.571000
t_1_1 - t_2_7 - 1000.000000 s_2_7  > -954.193000
t_2_1 - t_1_7 - 1000.000000 s_1_7  > -964.571000
t_2_1 - t_2_7 - 1000.000000 s_2_7  > -954.193000
t_1_1 - t_1_8 - 1000.000000 s_1_8  > -967.301100
t_1_1 - t_2_8 - 1000.000000 s_2_8  > -955.443500
t_2_1 - t_1_8 - 1000.000000 s_1_8  > -967.301100
t_2_1 - t_2_8 - 1000.000000 s_2_8  > -955.443500
s_1_2 + s_1_1 + 1000 r_1_1_2 >= 2
- s_1_2 - s_1_1 - 1000 r_1_1_2 >= -1001
t_1_2 - t_1_1 + 1000.000000 u_1_1_2 - 1.503055 s_1_1  + 0.751527 s_1_8  + 0.751527 s_1_7  + 2000.000000 r_1_1_2 > 22.018900
s_2_2 + s_2_1 + 1000 r_2_1_2 >= 2
- s_2_2 - s_2_1 - 1000 r_2_1_2 >= -1001
t_2_2 - t_2_1 + 1000.000000 u_2_1_2 - 1.742321 s_2_1  + 0.871161 s_2_8  + 0.871161 s_2_7  + 2000.000000 r_2_1_2 > 44.100400
s_1_2 + s_1_3 + 1000 r_1_2_3 >= 2
- s_1_2 - s_1_3 - 1000 r_1_2_3 >= -1001
t_1_2 - t_1_3 - 1000.000000 u_1_2_3 - 1.503055 s_1_3  + 0.751527 s_1_8  + 0.751527 s_1_7  + 2000.000000 r_1_2_3 > -995.307700
s_2_2 + s_2_3 + 1000 r_2_2_3 >= 2
- s_2_2 - s_2_3 - 1000 r_2_2_3 >= -1001
t_2_2 - t_2_3 - 1000.000000 u_2_2_3 - 1.742321 s_2_3  + 0.871161 s_2_8  + 0.871161 s_2_7  + 2000.000000 r_2_2_3 > -993.985100
s_1_2 + s_1_4 + 1000 r_1_2_4 >= 2
- s_1_2 - s_1_4 - 1000 r_1_2_4 >= -1001
t_1_2 - t_1_4 - 1000.000000 u_1_2_4 - 0.751527 s_1_4  + 0.751527 s_1_7  + 2000.000000 r_1_2_4 > -990.753700
s_2_2 + s_2_4 + 1000 r_2_2_4 >= 2
- s_2_2 - s_2_4 - 1000 r_2_2_4 >= -1001
t_2_2 - t_2_4 - 1000.000000 u_2_2_4 - 0.871161 s_2_4  + 0.871161 s_2_7  + 2000.000000 r_2_2_4 > -990.778100
s_1_2 + s_1_5 + 1000 r_1_2_5 >= 2
- s_1_2 - s_1_5 - 1000 r_1_2_5 >= -1001
t_1_2 - t_1_5 - 1000.000000 u_1_2_5 - 0.751527 s_1_5  + 0.751527 s_1_8  + 2000.000000 r_1_2_5 > -990.044600
s_2_2 + s_2_5 + 1000 r_2_2_5 >= 2
- s_2_2 - s_2_5 - 1000 r_2_2_5 >= -1001
t_2_2 - t_2_5 - 1000.000000 u_2_2_5 - 0.871161 s_2_5  + 0.871161 s_2_8  + 2000.000000 r_2_2_5 > -978.724156
t_1_6 - t_1_2 - 1000.751527 s_1_2  + 0.751527 s_1_7  > -977.886744
t_1_6 - t_2_2 - 1000.871161 s_2_2  + 0.871161 s_2_7  > -955.920100
t_2_6 - t_1_2 - 1000.751527 s_1_2  + 0.751527 s_1_7  > -977.886744
t_2_6 - t_2_2 - 1000.871161 s_2_2  + 0.871161 s_2_7  > -955.920100
t_1_2 - t_1_7 - 1000.000000 s_1_7  > -964.571000
t_1_2 - t_2_7 - 1000.000000 s_2_7  > -954.193000
t_2_2 - t_1_7 - 1000.000000 s_1_7  > -964.571000
t_2_2 - t_2_7 - 1000.000000 s_2_7  > -954.193000
s_1_2 + s_1_8 + 1000 r_1_2_8 >= 2
- s_1_2 - s_1_8 - 1000 r_1_2_8 >= -1001
t_1_2 - t_1_8 - 1000.000000 u_1_2_8 - 0.000000 s_1_8  + 2000.000000 r_1_2_8 > -967.301100
s_2_2 + s_2_8 + 1000 r_2_2_8 >= 2
- s_2_2 - s_2_8 - 1000 r_2_2_8 >= -1001
t_2_2 - t_2_8 - 1000.000000 u_2_2_8 - 0.000000 s_2_8  + 2000.000000 r_2_2_8 > -955.443500
s_1_3 + s_1_1 + 1000 r_1_1_3 >= 2
- s_1_3 - s_1_1 - 1000 r_1_1_3 >= -1001
t_1_3 - t_1_1 + 1000.000000 u_1_1_3 - 1.503055 s_1_1  + 0.751527 s_1_8  + 0.751527 s_1_7  + 2000.000000 r_1_1_3 > 22.018900
s_2_3 + s_2_1 + 1000 r_2_1_3 >= 2
- s_2_3 - s_2_1 - 1000 r_2_1_3 >= -1001
t_2_3 - t_2_1 + 1000.000000 u_2_1_3 - 1.742321 s_2_1  + 0.871161 s_2_8  + 0.871161 s_2_7  + 2000.000000 r_2_1_3 > 44.100400
s_1_3 + s_1_2 + 1000 r_1_2_3 >= 2
- s_1_3 - s_1_2 - 1000 r_1_2_3 >= -1001
t_1_3 - t_1_2 + 1000.000000 u_1_2_3 - 0.751527 s_1_2  + 0.751527 s_1_7  + 2000.000000 r_1_2_3 > 22.113256
s_2_3 + s_2_2 + 1000 r_2_2_3 >= 2
- s_2_3 - s_2_2 - 1000 r_2_2_3 >= -1001
t_2_3 - t_2_2 + 1000.000000 u_2_2_3 - 0.871161 s_2_2  + 0.871161 s_2_7  + 2000.000000 r_2_2_3 > 44.079900
s_1_3 + s_1_4 + 1000 r_1_3_4 >= 2
- s_1_3 - s_1_4 - 1000 r_1_3_4 >= -1001
t_1_3 - t_1_4 - 1000.000000 u_1_3_4 - 0.751527 s_1_4  + 0.751527 s_1_7  + 2000.000000 r_1_3_4 > -990.753700
s_2_3 + s_2_4 + 1000 r_2_3_4 >= 2
- s_2_3 - s_2_4 - 1000 r_2_3_4 >= -1001
t_2_3 - t_2_4 - 1000.000000 u_2_3_4 - 0.871161 s_2_4  + 0.871161 s_2_7  + 2000.000000 r_2_3_4 > -990.778100
s_1_3 + s_1_5 + 1000 r_1_3_5 >= 2
- s_1_3 - s_1_5 - 1000 r_1_3_5 >= -1001
t_1_3 - t_1_5 - 1000.000000 u_1_3_5 - 0.751527 s_1_5  + 0.751527 s_1_8  + 2000.000000 r_1_3_5 > -990.044600
s_2_3 + s_2_5 + 1000 r_2_3_5 >= 2
- s_2_3 - s_2_5 - 1000 r_2_3_5 >= -1001
t_2_3 - t_2_5 - 1000.000000 u_2_3_5 - 0.871161 s_2_5  + 0.871161 s_2_8  + 2000.000000 r_2_3_5 > -978.724156
t_1_6 - t_1_3 - 1001.503055 s_1_3  + 0.751527 s_1_8  + 0.751527 s_1_7  > -995.307700
t_1_6 - t_2_3 - 1001.742321 s_2_3  + 0.871161 s_2_8  + 0.871161 s_2_7  > -993.985100
t_2_6 - t_1_3 - 1001.503055 s_1_3  + 0.751527 s_1_8  + 0.751527 s_1_7  > -995.307700
t_2_6 - t_2_3 - 1001.742321 s_2_3  + 0.871161 s_2_8  + 0.871161 s_2_7  > -993.985100
t_1_3 - t_1_7 - 1000.000000 s_1_7  > -964.571000
t_1_3 - t_2_7 - 1000.000000 s_2_7  > -954.193000
t_2_3 - t_1_7 - 1000.000000 s_1_7  > -964.571000
t_2_3 - t_2_7 - 1000.000000 s_2_7  > -954.193000
t_1_3 - t_1_8 - 1000.000000 s_1_8  > -967.301100
t_1_3 - t_2_8 - 1000.000000 s_2_8  > -955.443500
t_2_3 - t_1_8 - 1000.000000 s_1_8  > -967.301100
t_2_3 - t_2_8 - 1000.000000 s_2_8  > -955.443500
s_1_4 + s_1_1 + 1000 r_1_1_4 >= 2
- s_1_4 - s_1_1 - 1000 r_1_1_4 >= -1001
t_1_4 - t_1_1 + 1000.000000 u_1_1_4 - 1.503055 s_1_1  + 0.751527 s_1_8  + 0.751527 s_1_7  + 2000.000000 r_1_1_4 > 22.018900
s_2_4 + s_2_1 + 1000 r_2_1_4 >= 2
- s_2_4 - s_2_1 - 1000 r_2_1_4 >= -1001
t_2_4 - t_2_1 + 1000.000000 u_2_1_4 - 1.742321 s_2_1  + 0.871161 s_2_8  + 0.871161 s_2_7  + 2000.000000 r_2_1_4 > 44.100400
s_1_4 + s_1_2 + 1000 r_1_2_4 >= 2
- s_1_4 - s_1_2 - 1000 r_1_2_4 >= -1001
t_1_4 - t_1_2 + 1000.000000 u_1_2_4 - 0.751527 s_1_2  + 0.751527 s_1_7  + 2000.000000 r_1_2_4 > 22.113256
s_2_4 + s_2_2 + 1000 r_2_2_4 >= 2
- s_2_4 - s_2_2 - 1000 r_2_2_4 >= -1001
t_2_4 - t_2_2 + 1000.000000 u_2_2_4 - 0.871161 s_2_2  + 0.871161 s_2_7  + 2000.000000 r_2_2_4 > 44.079900
s_1_4 + s_1_3 + 1000 r_1_3_4 >= 2
- s_1_4 - s_1_3 - 1000 r_1_3_4 >= -1001
t_1_4 - t_1_3 + 1000.000000 u_1_3_4 - 1.503055 s_1_3  + 0.751527 s_1_8  + 0.751527 s_1_7  + 2000.000000 r_1_3_4 > 4.692300
s_2_4 + s_2_3 + 1000 r_2_3_4 >= 2
- s_2_4 - s_2_3 - 1000 r_2_3_4 >= -1001
t_2_4 - t_2_3 + 1000.000000 u_2_3_4 - 1.742321 s_2_3  + 0.871161 s_2_8  + 0.871161 s_2_7  + 2000.000000 r_2_3_4 > 6.014900
s_1_4 + s_1_5 + 1000 r_1_4_5 >= 2
- s_1_4 - s_1_5 - 1000 r_1_4_5 >= -1001
t_1_4 - t_1_5 - 1000.000000 u_1_4_5 - 0.751527 s_1_5  + 0.751527 s_1_8  + 2000.000000 r_1_4_5 > -990.044600
s_2_4 + s_2_5 + 1000 r_2_4_5 >= 2
- s_2_4 - s_2_5 - 1000 r_2_4_5 >= -1001
t_2_4 - t_2_5 - 1000.000000 u_2_4_5 - 0.871161 s_2_5  + 0.871161 s_2_8  + 2000.000000 r_2_4_5 > -978.724156
t_1_6 - t_1_4 - 1000.751527 s_1_4  + 0.751527 s_1_7  > -990.753700
t_1_6 - t_2_4 - 1000.871161 s_2_4  + 0.871161 s_2_7  > -990.778100
t_2_6 - t_1_4 - 1000.751527 s_1_4  + 0.751527 s_1_7  > -990.753700
t_2_6 - t_2_4 - 1000.871161 s_2_4  + 0.871161 s_2_7  > -990.778100
t_1_4 - t_1_7 - 1000.000000 s_1_7  > -964.571000
t_1_4 - t_2_7 - 1000.000000 s_2_7  > -954.193000
t_2_4 - t_1_7 - 1000.000000 s_1_7  > -964.571000
t_2_4 - t_2_7 - 1000.000000 s_2_7  > -954.193000
s_1_4 + s_1_8 + 1000 r_1_4_8 >= 2
- s_1_4 - s_1_8 - 1000 r_1_4_8 >= -1001
t_1_4 - t_1_8 - 1000.000000 u_1_4_8 - 0.000000 s_1_8  + 2000.000000 r_1_4_8 > -967.301100
s_2_4 + s_2_8 + 1000 r_2_4_8 >= 2
- s_2_4 - s_2_8 - 1000 r_2_4_8 >= -1001
t_2_4 - t_2_8 - 1000.000000 u_2_4_8 - 0.000000 s_2_8  + 2000.000000 r_2_4_8 > -955.443500
s_1_5 + s_1_1 + 1000 r_1_1_5 >= 2
- s_1_5 - s_1_1 - 1000 r_1_1_5 >= -1001
t_1_5 - t_1_1 + 1000.000000 u_1_1_5 - 1.503055 s_1_1  + 0.751527 s_1_8  + 0.751527 s_1_7  + 2000.000000 r_1_1_5 > 22.018900
s_2_5 + s_2_1 + 1000 r_2_1_5 >= 2
- s_2_5 - s_2_1 - 1000 r_2_1_5 >= -1001
t_2_5 - t_2_1 + 1000.000000 u_2_1_5 - 1.742321 s_2_1  + 0.871161 s_2_8  + 0.871161 s_2_7  + 2000.000000 r_2_1_5 > 44.100400
s_1_5 + s_1_2 + 1000 r_1_2_5 >= 2
- s_1_5 - s_1_2 - 1000 r_1_2_5 >= -1001
t_1_5 - t_1_2 + 1000.000000 u_1_2_5 - 0.751527 s_1_2  + 0.751527 s_1_7  + 2000.000000 r_1_2_5 > 22.113256
s_2_5 + s_2_2 + 1000 r_2_2_5 >= 2
- s_2_5 - s_2_2 - 1000 r_2_2_5 >= -1001
t_2_5 - t_2_2 + 1000.000000 u_2_2_5 - 0.871161 s_2_2  + 0.871161 s_2_7  + 2000.000000 r_2_2_5 > 44.079900
s_1_5 + s_1_3 + 1000 r_1_3_5 >= 2
- s_1_5 - s_1_3 - 1000 r_1_3_5 >= -1001
t_1_5 - t_1_3 + 1000.000000 u_1_3_5 - 1.503055 s_1_3  + 0.751527 s_1_8  + 0.751527 s_1_7  + 2000.000000 r_1_3_5 > 4.692300
s_2_5 + s_2_3 + 1000 r_2_3_5 >= 2
- s_2_5 - s_2_3 - 1000 r_2_3_5 >= -1001
t_2_5 - t_2_3 + 1000.000000 u_2_3_5 - 1.742321 s_2_3  + 0.871161 s_2_8  + 0.871161 s_2_7  + 2000.000000 r_2_3_5 > 6.014900
s_1_5 + s_1_4 + 1000 r_1_4_5 >= 2
- s_1_5 - s_1_4 - 1000 r_1_4_5 >= -1001
t_1_5 - t_1_4 + 1000.000000 u_1_4_5 - 0.751527 s_1_4  + 0.751527 s_1_7  + 2000.000000 r_1_4_5 > 9.246300
s_2_5 + s_2_4 + 1000 r_2_4_5 >= 2
- s_2_5 - s_2_4 - 1000 r_2_4_5 >= -1001
t_2_5 - t_2_4 + 1000.000000 u_2_4_5 - 0.871161 s_2_4  + 0.871161 s_2_7  + 2000.000000 r_2_4_5 > 9.221900
t_1_6 - t_1_5 - 1000.751527 s_1_5  + 0.751527 s_1_8  > -990.044600
t_1_6 - t_2_5 - 1000.871161 s_2_5  + 0.871161 s_2_8  > -978.724156
t_2_6 - t_1_5 - 1000.751527 s_1_5  + 0.751527 s_1_8  > -990.044600
t_2_6 - t_2_5 - 1000.871161 s_2_5  + 0.871161 s_2_8  > -978.724156
s_1_5 + s_1_7 + 1000 r_1_5_7 >= 2
- s_1_5 - s_1_7 - 1000 r_1_5_7 >= -1001
t_1_5 - t_1_7 - 1000.000000 u_1_5_7 - 0.000000 s_1_7  + 2000.000000 r_1_5_7 > -964.571000
s_2_5 + s_2_7 + 1000 r_2_5_7 >= 2
- s_2_5 - s_2_7 - 1000 r_2_5_7 >= -1001
t_2_5 - t_2_7 - 1000.000000 u_2_5_7 - 0.000000 s_2_7  + 2000.000000 r_2_5_7 > -954.193000
t_1_5 - t_1_8 - 1000.000000 s_1_8  > -967.301100
t_1_5 - t_2_8 - 1000.000000 s_2_8  > -955.443500
t_2_5 - t_1_8 - 1000.000000 s_1_8  > -967.301100
t_2_5 - t_2_8 - 1000.000000 s_2_8  > -955.443500
t_1_6 - t_1_7 - 1000.000000 s_1_7  > -964.571000
t_1_6 - t_2_7 - 1000.000000 s_2_7  > -954.193000
t_2_6 - t_1_7 - 1000.000000 s_1_7  > -964.571000
t_2_6 - t_2_7 - 1000.000000 s_2_7  > -954.193000
s_1_7 + s_1_5 + 1000 r_1_5_7 >= 2
- s_1_7 - s_1_5 - 1000 r_1_5_7 >= -1001
t_1_7 - t_1_5 + 1000.000000 u_1_5_7 - 0.751527 s_1_5  + 0.751527 s_1_8  + 2000.000000 r_1_5_7 > 9.955400
s_2_7 + s_2_5 + 1000 r_2_5_7 >= 2
- s_2_7 - s_2_5 - 1000 r_2_5_7 >= -1001
t_2_7 - t_2_5 + 1000.000000 u_2_5_7 - 0.871161 s_2_5  + 0.871161 s_2_8  + 2000.000000 r_2_5_7 > 21.275844
s_1_7 + s_1_8 + 1000 r_1_7_8 >= 2
- s_1_7 - s_1_8 - 1000 r_1_7_8 >= -1001
t_1_7 - t_1_8 - 1000.000000 u_1_7_8 - 0.000000 s_1_8  + 2000.000000 r_1_7_8 > -967.301100
s_2_7 + s_2_8 + 1000 r_2_7_8 >= 2
- s_2_7 - s_2_8 - 1000 r_2_7_8 >= -1001
t_2_7 - t_2_8 - 1000.000000 u_2_7_8 - 0.000000 s_2_8  + 2000.000000 r_2_7_8 > -955.443500
s_1_8 + s_1_2 + 1000 r_1_2_8 >= 2
- s_1_8 - s_1_2 - 1000 r_1_2_8 >= -1001
t_1_8 - t_1_2 + 1000.000000 u_1_2_8 - 0.751527 s_1_2  + 0.751527 s_1_7  + 2000.000000 r_1_2_8 > 22.113256
s_2_8 + s_2_2 + 1000 r_2_2_8 >= 2
- s_2_8 - s_2_2 - 1000 r_2_2_8 >= -1001
t_2_8 - t_2_2 + 1000.000000 u_2_2_8 - 0.871161 s_2_2  + 0.871161 s_2_7  + 2000.000000 r_2_2_8 > 44.079900
s_1_8 + s_1_4 + 1000 r_1_4_8 >= 2
- s_1_8 - s_1_4 - 1000 r_1_4_8 >= -1001
t_1_8 - t_1_4 + 1000.000000 u_1_4_8 - 0.751527 s_1_4  + 0.751527 s_1_7  + 2000.000000 r_1_4_8 > 9.246300
s_2_8 + s_2_4 + 1000 r_2_4_8 >= 2
- s_2_8 - s_2_4 - 1000 r_2_4_8 >= -1001
t_2_8 - t_2_4 + 1000.000000 u_2_4_8 - 0.871161 s_2_4  + 0.871161 s_2_7  + 2000.000000 r_2_4_8 > 9.221900
s_1_8 + s_1_7 + 1000 r_1_7_8 >= 2
- s_1_8 - s_1_7 - 1000 r_1_7_8 >= -1001
t_1_8 - t_1_7 + 1000.000000 u_1_7_8 - 0.000000 s_1_7  + 2000.000000 r_1_7_8 > 35.429000
s_2_8 + s_2_7 + 1000 r_2_7_8 >= 2
- s_2_8 - s_2_7 - 1000 r_2_7_8 >= -1001
t_2_8 - t_2_7 + 1000.000000 u_2_7_8 - 0.000000 s_2_7  + 2000.000000 r_2_7_8 > 45.807000
Binary
s_1_1
s_2_1
s_1_2
s_2_2
s_1_3
s_2_3
s_1_4
s_2_4
s_1_5
s_2_5
s_1_6
s_2_6
s_1_7
s_2_7
s_1_8
s_2_8
u_1_1_2
r_1_1_2
u_2_1_2
r_2_1_2
u_1_1_3
r_1_1_3
u_2_1_3
r_2_1_3
u_1_1_4
r_1_1_4
u_2_1_4
r_2_1_4
u_1_1_5
r_1_1_5
u_2_1_5
r_2_1_5
u_1_2_3
r_1_2_3
u_2_2_3
r_2_2_3
u_1_2_4
r_1_2_4
u_2_2_4
r_2_2_4
u_1_2_5
r_1_2_5
u_2_2_5
r_2_2_5
u_1_2_8
r_1_2_8
u_2_2_8
r_2_2_8
u_1_3_4
r_1_3_4
u_2_3_4
r_2_3_4
u_1_3_5
r_1_3_5
u_2_3_5
r_2_3_5
u_1_4_5
r_1_4_5
u_2_4_5
r_2_4_5
u_1_4_8
r_1_4_8
u_2_4_8
r_2_4_8
u_1_5_7
r_1_5_7
u_2_5_7
r_2_5_7
u_1_7_8
r_1_7_8
u_2_7_8
r_2_7_8

End
